problems/csplib-prob010/SocialGolfersProblem-models/noch/O2/minion/model_3-ord11-7-6-3-solution000001.solution
language Essence 1.3

letting Golfers be new type enum
        {Golfers_1, Golfers_2, Golfers_3, Golfers_4, Golfers_5, Golfers_6, Golfers_7, Golfers_8, Golfers_9, Golfers_10,
         Golfers_11, Golfers_12, Golfers_13, Golfers_14, Golfers_15, Golfers_16, Golfers_17, Golfers_18}
letting sched be
        {partition({Golfers_1, Golfers_10, Golfers_15}, {Golfers_11, Golfers_16, Golfers_5},
                   {Golfers_12, Golfers_17, Golfers_4}, {Golfers_13, Golfers_2, Golfers_9},
                   {Golfers_14, Golfers_6, Golfers_7}, {Golfers_18, Golfers_3, Golfers_8}),
         partition({Golfers_1, Golfers_11, Golfers_6}, {Golfers_10, Golfers_17, Golfers_5},
                   {Golfers_12, Golfers_2, Golfers_7}, {Golfers_13, Golfers_3, Golfers_4},
                   {Golfers_14, Golfers_18, Golfers_9}, {Golfers_15, Golfers_16, Golfers_8}),
         partition({Golfers_1, Golfers_12, Golfers_13}, {Golfers_10, Golfers_14, Golfers_3},
                   {Golfers_11, Golfers_4, Golfers_8}, {Golfers_15, Golfers_17, Golfers_9},
                   {Golfers_16, Golfers_2, Golfers_6}, {Golfers_18, Golfers_5, Golfers_7}),
         partition({Golfers_1, Golfers_14, Golfers_8}, {Golfers_10, Golfers_18, Golfers_6},
                   {Golfers_11, Golfers_15, Golfers_2}, {Golfers_12, Golfers_3, Golfers_5},
                   {Golfers_13, Golfers_17, Golfers_7}, {Golfers_16, Golfers_4, Golfers_9}),
         partition({Golfers_1, Golfers_2, Golfers_3}, {Golfers_10, Golfers_11, Golfers_12},
                   {Golfers_13, Golfers_14, Golfers_15}, {Golfers_16, Golfers_17, Golfers_18},
                   {Golfers_4, Golfers_5, Golfers_6}, {Golfers_7, Golfers_8, Golfers_9}),
         partition({Golfers_1, Golfers_4, Golfers_7}, {Golfers_10, Golfers_13, Golfers_16},
                   {Golfers_11, Golfers_14, Golfers_17}, {Golfers_12, Golfers_15, Golfers_18},
                   {Golfers_2, Golfers_5, Golfers_8}, {Golfers_3, Golfers_6, Golfers_9}),
         partition({Golfers_1, Golfers_5, Golfers_9}, {Golfers_10, Golfers_2, Golfers_4},
                   {Golfers_11, Golfers_13, Golfers_18}, {Golfers_12, Golfers_14, Golfers_16},
                   {Golfers_15, Golfers_3, Golfers_7}, {Golfers_17, Golfers_6, Golfers_8})}
$ Visualisation for sched
$ Golfers_1  Golfers_10 Golfers_15
$ Golfers_11 Golfers_16 Golfers_5 
$ Golfers_12 Golfers_17 Golfers_4 
$ Golfers_13 Golfers_2  Golfers_9 
$ Golfers_14 Golfers_6  Golfers_7 
$ Golfers_18 Golfers_3  Golfers_8 
$ 
$ Golfers_1  Golfers_11 Golfers_6 
$ Golfers_10 Golfers_17 Golfers_5 
$ Golfers_12 Golfers_2  Golfers_7 
$ Golfers_13 Golfers_3  Golfers_4 
$ Golfers_14 Golfers_18 Golfers_9 
$ Golfers_15 Golfers_16 Golfers_8 
$ 
$ Golfers_1  Golfers_12 Golfers_13
$ Golfers_10 Golfers_14 Golfers_3 
$ Golfers_11 Golfers_4  Golfers_8 
$ Golfers_15 Golfers_17 Golfers_9 
$ Golfers_16 Golfers_2  Golfers_6 
$ Golfers_18 Golfers_5  Golfers_7 
$ 
$ Golfers_1  Golfers_14 Golfers_8 
$ Golfers_10 Golfers_18 Golfers_6 
$ Golfers_11 Golfers_15 Golfers_2 
$ Golfers_12 Golfers_3  Golfers_5 
$ Golfers_13 Golfers_17 Golfers_7 
$ Golfers_16 Golfers_4  Golfers_9 
$ 
$ Golfers_1  Golfers_2  Golfers_3 
$ Golfers_10 Golfers_11 Golfers_12
$ Golfers_13 Golfers_14 Golfers_15
$ Golfers_16 Golfers_17 Golfers_18
$ Golfers_4  Golfers_5  Golfers_6 
$ Golfers_7  Golfers_8  Golfers_9 
$ 
$ Golfers_1  Golfers_4  Golfers_7 
$ Golfers_10 Golfers_13 Golfers_16
$ Golfers_11 Golfers_14 Golfers_17
$ Golfers_12 Golfers_15 Golfers_18
$ Golfers_2  Golfers_5  Golfers_8 
$ Golfers_3  Golfers_6  Golfers_9 
$ 
$ Golfers_1  Golfers_5  Golfers_9 
$ Golfers_10 Golfers_2  Golfers_4 
$ Golfers_11 Golfers_13 Golfers_18
$ Golfers_12 Golfers_14 Golfers_16
$ Golfers_15 Golfers_3  Golfers_7 
$ Golfers_17 Golfers_6  Golfers_8 
$ 

